c Sudoku solution
p cnf 729 0
111 0
128 0
184 0
223 0
244 0
266 0
332 0
357 0
455 0
527 0
533 0
572 0
595 0
622 0
638 0
615 0
643 0
696 0
774 0
494 0
514 0
324 0
869 0
885 0
942 0
462 0
964 0
834 0
654 0
979 0
689 0
987 0
993 0
741 0
765 0
847 0
925 0
931 0
826 0
729 0
918 0
737 0
786 0
956 0
217 0
421 0
667 0
477 0
483 0
671 0
588 0
448 0
561 0
546 0
559 0
251 0
152 0
368 0
163 0
878 0
891 0
792 0
713 0
812 0
758 0
853 0
373 0
345 0
149 0
197 0
176 0
275 0
381 0
399 0
135 0
239 0
316 0
419 0
436 0
282 0
298 0
